minizinc/fill_a_pix3.dzn
% Puzzle from 
% http://www.conceptispuzzles.com/index.aspx?uri=puzzle/fill-a-pix/basiclogic
%
% Code: 030.15x15
% ID: 03090000000
% 
n = 15;
puzzle = array2d(1..n, 1..n, 
[
  X,5,X,6,X,X,X,X,X,X,6,X,X,X,X,
  X,X,7,6,X,4,X,X,4,X,X,8,9,X,5,
  5,X,X,5,X,5,X,3,X,6,X,7,X,X,6,
  4,X,2,X,4,X,4,X,3,X,2,X,X,9,X,
  X,X,X,5,X,4,X,3,X,4,X,4,5,X,6,
  X,4,3,3,4,X,X,X,4,X,2,X,X,X,X,
  X,X,X,X,X,X,X,X,X,5,X,X,X,4,X,
  3,X,3,X,X,3,X,X,X,5,X,4,4,X,X,
  X,X,X,4,3,X,3,3,X,X,5,7,6,X,X,
  4,X,X,X,2,X,3,3,2,X,8,9,X,5,X,
  X,X,3,X,X,X,X,5,X,X,7,X,8,X,X,
  4,X,X,3,2,X,X,X,X,X,7,X,X,6,X,
  X,X,4,X,5,4,4,X,X,9,6,X,X,X,X,
  X,3,5,7,X,6,X,X,X,X,X,X,7,X,X,
  X,X,4,6,6,X,X,X,6,5,X,X,X,4,X
]);


